QPLIB_1493
QCQ
minimize
40 # number of variables
5 # number of constraints
798 # number of quadratic terms in objective
1 1 -1.52
2 1 -0.6
3 1 -1.04
4 1 2.96
5 1 3.84
6 1 3.92
7 1 -3.32
8 1 -1.16
9 1 2.8
10 1 -0.8
11 1 0.64
12 1 0.2
13 1 1.2
14 1 0.64
15 1 1.96
16 1 -1.08
17 1 1.6
18 1 -1.12
20 1 2.68
21 1 1.92
22 1 1.2
23 1 1.24
24 1 -0.4
25 1 -0.4
26 1 0.12
27 1 2.32
28 1 2.36
29 1 3.28
30 1 -3.4
31 1 2.12
32 1 1.68
33 1 -0.92
34 1 3.28
35 1 0.88
36 1 -2.28
37 1 3.2
38 1 2.4
39 1 1.72
40 1 3.16
2 2 0.8
3 2 -2.08
4 2 -1.56
5 2 -3.52
6 2 0.92
7 2 -3.8
8 2 1.24
9 2 -2.2
10 2 -0.48
11 2 -0.68
12 2 1.0
13 2 -2.16
14 2 -3.72
15 2 -0.32
16 2 -1.64
17 2 -1.04
18 2 -1.52
19 2 2.2
20 2 1.92
21 2 -3.8
22 2 0.72
24 2 2.64
25 2 -3.72
26 2 0.4
27 2 1.12
28 2 -3.8
29 2 0.2
30 2 -1.64
32 2 1.16
33 2 -1.6
34 2 0.2
35 2 -2.76
36 2 0.24
37 2 -3.08
38 2 -3.28
39 2 -2.88
40 2 1.68
4 3 -2.08
5 3 3.36
6 3 2.36
7 3 -1.36
8 3 -1.28
9 3 -2.8
10 3 -0.88
11 3 -2.08
12 3 0.4
13 3 0.64
14 3 -0.68
15 3 1.96
16 3 -0.24
17 3 -1.6
18 3 -1.88
19 3 1.48
20 3 0.64
21 3 2.36
22 3 -1.76
23 3 -1.84
24 3 0.96
25 3 -0.08
26 3 -3.6
27 3 3.68
28 3 -0.32
29 3 2.68
30 3 2.36
31 3 -0.08
32 3 2.44
33 3 0.24
34 3 1.88
35 3 1.52
36 3 1.56
37 3 2.64
38 3 1.24
39 3 3.08
40 3 0.12
4 4 -0.1
5 4 -0.56
6 4 1.44
7 4 0.24
8 4 -2.0
9 4 -2.72
10 4 -3.0
11 4 2.8
12 4 0.24
13 4 -3.08
14 4 0.04
15 4 -1.92
16 4 -1.4
17 4 1.92
18 4 1.52
19 4 -3.28
20 4 1.32
21 4 -3.12
22 4 0.48
23 4 2.16
24 4 -1.44
25 4 3.88
26 4 -2.16
27 4 -2.24
28 4 -0.48
29 4 3.92
30 4 3.52
31 4 -3.8
32 4 -1.08
33 4 -3.36
34 4 -3.88
35 4 2.2
36 4 3.64
37 4 -0.76
38 4 -2.68
39 4 -2.68
40 4 1.24
5 5 -1.76
6 5 -3.48
7 5 -0.84
8 5 -3.92
9 5 -2.04
10 5 2.64
11 5 2.12
12 5 1.04
14 5 -3.08
15 5 -3.04
17 5 -1.4
18 5 -1.04
19 5 0.12
20 5 1.76
21 5 0.08
22 5 0.24
23 5 3.72
24 5 -1.96
25 5 3.4
26 5 0.32
27 5 1.28
28 5 -3.08
29 5 -2.44
30 5 2.04
31 5 -3.72
32 5 -2.28
33 5 -0.8
34 5 -0.24
35 5 2.6
36 5 1.36
37 5 -3.16
38 5 0.76
39 5 0.52
40 5 2.0
6 6 0.72
7 6 -2.44
8 6 2.68
9 6 3.4
10 6 0.36
11 6 -1.24
12 6 3.16
13 6 2.96
14 6 1.48
15 6 3.32
16 6 0.92
17 6 -3.24
18 6 -3.24
19 6 -0.56
20 6 -1.72
21 6 -0.36
22 6 3.12
23 6 1.04
24 6 -0.28
25 6 -0.08
26 6 -1.36
27 6 0.12
28 6 0.96
29 6 -2.8
30 6 -1.36
31 6 -0.76
32 6 -2.12
33 6 2.48
34 6 -2.28
35 6 1.56
36 6 -0.4
37 6 1.56
38 6 -0.12
39 6 1.96
40 6 2.92
7 7 1.72
8 7 0.76
9 7 -0.08
10 7 -3.2
11 7 1.16
12 7 -3.68
13 7 -0.08
14 7 -1.04
15 7 -2.08
16 7 3.92
17 7 -0.08
18 7 1.16
19 7 -1.0
20 7 -3.32
21 7 2.52
22 7 -2.36
23 7 1.76
24 7 -2.48
25 7 2.68
27 7 0.52
28 7 -3.52
29 7 0.2
30 7 -0.12
31 7 0.36
32 7 -3.88
33 7 3.12
34 7 1.16
35 7 2.68
36 7 -1.92
37 7 2.84
38 7 -0.64
39 7 -0.72
40 7 3.44
8 8 1.74
9 8 2.64
10 8 -1.24
11 8 -2.76
12 8 -2.0
13 8 3.4
14 8 -3.24
15 8 2.52
16 8 -2.2
17 8 2.88
18 8 -2.88
19 8 -1.04
20 8 2.4
21 8 2.4
22 8 0.2
24 8 3.4
25 8 -3.04
26 8 0.68
27 8 -2.28
28 8 1.64
29 8 1.48
31 8 1.24
32 8 -0.52
33 8 -2.52
34 8 -0.8
35 8 -0.24
36 8 -0.24
37 8 -1.68
38 8 -1.88
39 8 -3.24
40 8 -1.4
9 9 0.3
10 9 3.88
11 9 -3.24
12 9 2.6
13 9 1.52
14 9 1.92
15 9 -2.92
16 9 -1.32
17 9 3.08
18 9 -3.72
19 9 -1.0
20 9 -1.48
21 9 -3.0
22 9 0.32
23 9 3.0
24 9 -3.24
25 9 1.56
26 9 2.12
27 9 0.2
28 9 3.8
29 9 -0.36
30 9 1.24
31 9 0.84
32 9 1.04
33 9 1.48
34 9 1.16
35 9 1.8
36 9 -0.76
37 9 2.88
38 9 1.28
39 9 -3.64
40 9 -2.76
10 10 0.18
11 10 -0.08
12 10 2.52
13 10 2.2
14 10 -2.16
15 10 0.48
16 10 0.88
17 10 1.24
18 10 -3.76
19 10 2.28
20 10 -1.08
21 10 3.36
22 10 -0.32
23 10 -1.76
24 10 -2.32
25 10 -1.2
26 10 1.8
27 10 -0.8
28 10 -0.36
29 10 -3.56
30 10 3.64
31 10 0.28
32 10 -3.96
33 10 3.72
34 10 0.36
35 10 -0.36
36 10 0.04
37 10 -1.92
38 10 0.68
39 10 0.76
40 10 0.64
11 11 0.28
12 11 2.12
13 11 -0.4
14 11 -3.28
15 11 -0.12
16 11 -3.16
17 11 1.36
18 11 1.44
19 11 2.56
20 11 3.32
21 11 -3.04
22 11 -3.72
23 11 1.72
24 11 2.88
25 11 1.8
26 11 2.24
27 11 0.48
29 11 2.24
30 11 3.28
31 11 -1.36
32 11 0.24
34 11 -2.64
35 11 -0.6
36 11 -3.16
37 11 -3.0
38 11 2.4
39 11 2.64
40 11 0.48
12 12 -0.26
13 12 -2.64
14 12 -3.68
15 12 -0.8
16 12 -2.84
17 12 1.92
18 12 2.24
19 12 2.0
20 12 -2.52
21 12 3.48
22 12 3.0
23 12 2.88
24 12 3.44
25 12 -1.68
26 12 -1.96
27 12 -1.36
28 12 -0.08
29 12 2.72
31 12 -1.8
32 12 -1.4
33 12 2.56
34 12 0.96
35 12 1.72
36 12 -0.6
37 12 -3.16
38 12 -1.8
39 12 2.16
40 12 1.2
13 13 -1.64
14 13 0.24
15 13 2.64
16 13 0.68
17 13 2.72
18 13 -3.2
19 13 -2.0
20 13 -1.72
21 13 -0.6
22 13 -0.64
23 13 0.48
24 13 -0.08
25 13 -0.2
26 13 -1.92
27 13 2.4
28 13 -1.48
29 13 -2.48
30 13 3.96
31 13 -0.2
32 13 -0.6
33 13 -3.2
34 13 3.44
35 13 -2.04
37 13 1.4
38 13 1.44
39 13 0.08
40 13 -2.68
14 14 0.04
15 14 1.2
16 14 -3.32
17 14 -0.12
18 14 -3.24
19 14 -1.96
20 14 1.08
21 14 -0.44
22 14 -0.2
23 14 -1.28
24 14 -0.2
25 14 1.64
26 14 3.28
27 14 0.56
28 14 -1.12
29 14 0.84
30 14 2.12
31 14 0.52
32 14 -0.04
33 14 2.04
34 14 3.64
35 14 -2.88
36 14 1.56
37 14 -1.84
38 14 -1.12
39 14 -3.36
40 14 2.88
15 15 -0.94
16 15 0.88
17 15 0.84
18 15 0.08
19 15 0.44
20 15 3.76
21 15 0.84
22 15 -3.88
23 15 -2.16
24 15 -1.48
25 15 0.36
26 15 1.44
27 15 -0.96
28 15 -3.12
29 15 -1.8
30 15 3.32
31 15 -3.72
32 15 -1.64
33 15 -0.68
34 15 -2.44
35 15 -3.88
36 15 3.92
37 15 2.48
38 15 -1.68
39 15 -3.92
40 15 2.72
16 16 -1.72
17 16 2.16
18 16 3.08
19 16 3.52
20 16 2.2
21 16 0.32
22 16 0.48
23 16 3.44
24 16 2.64
25 16 -1.16
26 16 -1.44
27 16 -2.44
28 16 -3.56
29 16 0.8
30 16 -1.48
31 16 -1.08
32 16 -0.24
33 16 -2.6
34 16 3.64
35 16 -0.8
36 16 -0.6
37 16 -1.08
38 16 0.64
39 16 2.36
40 16 1.08
17 17 0.02
18 17 2.64
21 17 1.12
22 17 -3.12
23 17 0.28
24 17 0.08
25 17 2.92
27 17 -0.24
28 17 -3.2
29 17 3.16
30 17 3.56
31 17 -3.48
32 17 -1.84
33 17 2.04
34 17 1.08
35 17 -3.36
36 17 -1.48
37 17 -1.4
38 17 -3.44
39 17 -1.76
40 17 3.24
18 18 0.4
19 18 0.68
20 18 -2.04
21 18 -0.88
22 18 3.2
23 18 0.64
25 18 -3.76
26 18 -2.44
27 18 3.6
28 18 -1.28
29 18 0.96
30 18 -3.76
31 18 3.84
32 18 0.12
33 18 3.68
34 18 2.48
35 18 2.16
36 18 -2.84
37 18 -3.88
38 18 0.72
39 18 1.24
40 18 1.96
19 19 -0.3
20 19 -3.44
21 19 -1.36
22 19 0.04
23 19 -3.6
24 19 -2.68
25 19 -2.56
26 19 1.72
27 19 -2.72
28 19 2.92
29 19 1.76
30 19 -1.88
31 19 2.08
32 19 -3.44
33 19 3.04
34 19 -2.2
35 19 -0.92
36 19 -3.24
37 19 -0.28
38 19 0.12
39 19 2.0
40 19 0.24
20 20 0.8
21 20 -3.16
22 20 0.16
23 20 0.36
24 20 2.4
25 20 -3.96
26 20 1.28
27 20 -0.64
28 20 -0.16
29 20 0.44
30 20 -1.04
31 20 -2.64
32 20 1.44
33 20 -2.72
34 20 3.36
35 20 2.32
36 20 2.8
37 20 -2.6
38 20 2.08
39 20 2.12
40 20 2.0
21 21 0.4
22 21 3.64
24 21 2.2
25 21 0.52
26 21 1.08
27 21 2.6
28 21 3.16
30 21 -1.72
31 21 2.08
32 21 -0.52
33 21 0.24
34 21 -3.6
35 21 -3.08
36 21 3.64
37 21 -2.4
38 21 2.76
39 21 1.12
40 21 -3.2
22 22 1.9
23 22 4.0
24 22 -0.56
25 22 -3.84
26 22 2.24
27 22 -3.56
28 22 -3.44
30 22 -2.12
31 22 1.96
32 22 -3.8
33 22 1.28
34 22 3.64
35 22 -2.88
36 22 -1.2
37 22 -3.0
38 22 -1.92
39 22 -1.24
40 22 -0.64
23 23 0.96
24 23 3.68
25 23 -3.56
26 23 -4.0
27 23 -1.2
28 23 -0.16
29 23 -2.76
30 23 2.76
31 23 0.8
32 23 3.0
33 23 4.0
34 23 -3.68
35 23 -3.12
36 23 3.64
37 23 -0.08
38 23 -0.68
39 23 -3.64
40 23 -2.76
24 24 -1.88
25 24 3.72
26 24 -2.0
27 24 -0.52
28 24 0.96
29 24 3.88
30 24 -3.4
31 24 3.24
32 24 -2.32
33 24 3.6
34 24 -3.88
35 24 2.32
36 24 -1.68
37 24 -1.24
38 24 -1.6
39 24 -2.44
40 24 -3.56
25 25 1.34
26 25 1.12
27 25 -2.76
28 25 1.16
29 25 -2.32
30 25 1.28
31 25 3.8
32 25 -1.04
33 25 -3.84
34 25 0.48
35 25 3.76
36 25 -0.84
37 25 0.88
38 25 -3.04
39 25 -3.88
40 25 0.48
26 26 -1.46
27 26 -1.6
28 26 2.6
29 26 0.04
30 26 2.08
32 26 0.32
33 26 -2.64
34 26 1.32
35 26 -2.84
36 26 -2.52
37 26 -0.84
38 26 -3.16
40 26 3.88
27 27 -0.24
28 27 -1.0
29 27 1.8
30 27 1.08
31 27 2.44
32 27 -1.92
33 27 -3.12
34 27 -1.96
35 27 3.88
36 27 -2.44
37 27 2.48
38 27 3.36
39 27 -3.36
40 27 0.32
28 28 1.86
29 28 4.0
30 28 0.84
31 28 2.08
32 28 0.4
33 28 1.6
34 28 -0.04
35 28 2.4
36 28 -3.92
37 28 0.96
38 28 3.84
39 28 3.36
40 28 -3.52
29 29 0.94
30 29 3.04
31 29 0.04
32 29 -2.68
33 29 -0.88
34 29 2.52
35 29 -3.64
36 29 -0.88
37 29 1.84
38 29 0.84
39 29 -2.88
40 29 3.24
30 30 1.5
31 30 1.04
32 30 -2.0
33 30 -1.96
34 30 2.12
35 30 -2.96
36 30 1.32
37 30 1.44
38 30 -3.32
39 30 -2.04
40 30 1.88
31 31 1.66
32 31 3.28
33 31 1.56
34 31 0.84
35 31 2.12
36 31 3.8
37 31 0.32
38 31 -3.6
39 31 -1.68
40 31 3.4
32 32 -0.5
33 32 1.56
34 32 -3.56
35 32 -2.6
36 32 -3.8
37 32 -0.04
38 32 -1.36
39 32 2.04
40 32 0.24
33 33 -1.82
34 33 3.2
35 33 3.52
36 33 -1.72
37 33 -3.8
38 33 -3.84
39 33 1.2
40 33 -1.92
34 34 1.98
35 34 1.32
36 34 -2.56
37 34 -3.96
38 34 3.88
39 34 3.92
40 34 2.24
35 35 1.26
36 35 3.12
37 35 1.28
38 35 -1.96
39 35 -1.0
40 35 0.36
36 36 -1.52
37 36 2.64
38 36 -2.28
39 36 2.44
40 36 -1.16
37 37 -1.64
38 37 -3.0
39 37 -1.92
40 37 -1.32
38 38 1.78
39 38 0.04
40 38 0.44
39 39 0.06
40 39 -1.24
40 40 0.46
-0.12 # default value for linear coefficients in objective
39 # number of non-default linear coefficients in objective
1 -0.22
2 -0.43
3 -0.11
4 -0.3
5 -0.61
6 0.46
7 -0.65
8 0.41
9 0.4
10 0.01
11 -0.94
12 0.2
13 0.69
14 -0.28
15 -0.11
16 -0.42
17 -0.05
18 -0.59
19 -0.57
20 0.64
21 0.11
22 -0.53
23 -0.03
24 0.9
25 0.34
26 0.64
27 0.79
28 -0.76
29 0.01
30 0.83
31 0.24
32 0.55
33 0.81
34 -0.94
35 0.46
36 0.27
37 0.57
38 0.43
39 0.9
0.0 # objective constant
792 # number of quadratic terms in all constraints
5 5 1 1.88
5 5 1 2.68
5 5 1 4.0
5 5 1 -3.64
5 5 1 0.36
5 5 1 -2.16
5 5 1 -2.32
5 5 1 2.56
5 5 1 -0.84
5 5 1 -0.48
5 5 1 2.04
5 5 1 1.04
5 5 1 3.28
5 5 1 0.8
5 5 1 -1.84
5 5 1 -2.56
5 5 1 2.12
5 5 1 -0.52
5 5 1 -3.24
5 5 1 -0.12
5 5 1 -2.32
5 5 1 3.32
5 5 1 -2.36
5 5 1 -2.96
5 5 1 -3.24
5 5 1 3.64
5 5 1 -3.32
5 5 1 -0.64
5 5 1 3.36
5 5 1 2.52
5 5 1 2.72
5 5 1 1.64
5 5 1 -3.72
5 5 1 -1.04
5 5 1 -3.32
5 5 1 2.88
5 5 1 1.28
5 5 1 -3.24
5 5 1 -1.36
5 5 1 0.16
5 5 1 -1.54
5 5 1 2.24
5 5 1 -0.88
5 5 1 -2.24
5 5 1 2.48
5 5 1 -3.56
5 5 1 1.44
5 5 1 2.68
5 5 1 3.32
5 5 1 -2.12
5 5 1 -3.6
5 5 1 -1.52
5 5 1 0.96
5 5 1 2.56
5 5 1 0.32
5 5 1 -3.56
5 5 1 -0.12
5 5 1 -2.56
5 5 1 1.12
5 5 1 -0.2
5 5 1 3.84
5 5 1 -0.76
5 5 1 -3.2
5 5 1 -3.4
5 5 1 -3.72
5 5 1 0.2
5 5 1 3.76
5 5 1 0.36
5 5 1 -2.24
5 5 1 1.6
5 5 1 3.32
5 5 1 0.28
5 5 1 2.88
5 5 1 -3.4
5 5 1 -2.16
5 5 1 -4.0
5 5 1 -0.2
5 5 1 -0.02
5 5 1 -1.72
5 5 1 -0.84
5 5 1 1.04
5 5 1 -1.2
5 5 1 3.92
5 5 1 -1.56
5 5 1 -3.56
5 5 1 -3.24
5 5 1 -1.4
5 5 1 -1.6
5 5 1 2.4
5 5 1 2.56
5 5 1 3.64
5 5 1 -0.68
5 5 1 -0.16
5 5 1 0.64
5 5 1 -2.32
5 5 1 -3.16
5 5 1 2.04
5 5 1 -2.84
5 5 1 -3.16
5 5 1 2.64
5 5 1 -0.56
5 5 1 2.6
5 5 1 1.56
5 5 1 1.12
5 5 1 3.48
5 5 1 -3.68
5 5 1 1.76
5 5 1 1.28
5 5 1 0.8
5 5 1 1.28
5 5 1 -2.48
5 5 1 -0.24
5 5 1 2.08
5 5 1 -0.12
5 5 1 -1.84
5 5 1 1.24
5 5 1 -3.72
5 5 1 0.28
5 5 1 0.32
5 5 1 -2.92
5 5 1 1.2
5 5 1 0.88
5 5 1 -3.64
5 5 1 1.36
5 5 1 2.24
5 5 1 2.68
5 5 1 -2.44
5 5 1 -0.8
5 5 1 0.36
5 5 1 -1.12
5 5 1 3.56
5 5 1 -1.52
5 5 1 0.76
5 5 1 1.32
5 5 1 -3.2
5 5 1 1.48
5 5 1 1.36
5 5 1 2.88
5 5 1 -1.76
5 5 1 -1.2
5 5 1 -2.04
5 5 1 -1.56
5 5 1 2.64
5 5 1 -0.8
5 5 1 -1.04
5 5 1 3.88
5 5 1 -0.84
5 5 1 -0.96
5 5 1 -0.24
5 5 1 -3.08
5 5 1 -2.92
5 5 1 1.96
5 5 1 -0.28
5 5 1 1.44
5 5 1 -2.84
5 5 1 -2.28
5 5 1 -1.28
5 5 1 2.92
5 5 1 3.24
5 5 1 2.36
5 5 1 0.16
5 5 1 1.72
5 5 1 0.44
5 5 1 3.36
5 5 1 -3.72
5 5 1 -0.56
5 5 1 -1.4
5 5 1 3.36
5 5 1 -2.56
5 5 1 -3.76
5 5 1 0.4
5 5 1 -1.48
5 5 1 -3.84
5 5 1 3.68
5 5 1 0.16
5 5 1 1.52
5 5 1 1.28
5 5 1 1.84
5 5 1 -3.88
5 5 1 -2.12
5 5 1 -2.92
5 5 1 -1.52
5 5 1 1.1
5 5 1 0.48
5 5 1 -3.4
5 5 1 2.36
5 5 1 -1.68
5 5 1 2.96
5 5 1 2.04
5 5 1 0.72
5 5 1 2.68
5 5 1 2.0
5 5 1 -3.12
5 5 1 -0.84
5 5 1 -3.96
5 5 1 -1.72
5 5 1 -2.04
5 5 1 -2.96
5 5 1 -2.4
5 5 1 1.04
5 5 1 -1.12
5 5 1 1.4
5 5 1 -2.32
5 5 1 -3.44
5 5 1 3.36
5 5 1 1.08
5 5 1 -1.68
5 5 1 2.12
5 5 1 -2.68
5 5 1 2.36
5 5 1 1.44
5 5 1 -0.6
5 5 1 -0.12
5 5 1 -2.88
5 5 1 1.92
5 5 1 0.04
5 5 1 1.36
5 5 1 1.34
5 5 1 0.36
5 5 1 0.84
5 5 1 -1.36
5 5 1 2.68
5 5 1 -1.0
5 5 1 -0.04
5 5 1 -2.44
5 5 1 3.44
5 5 1 -1.8
5 5 1 2.88
5 5 1 -3.72
5 5 1 0.4
5 5 1 -2.44
5 5 1 3.48
5 5 1 -1.52
5 5 1 3.28
5 5 1 -3.8
5 5 1 0.6
5 5 1 -1.76
5 5 1 -1.6
5 5 1 -3.2
5 5 1 -0.6
5 5 1 0.56
5 5 1 -0.96
5 5 1 2.76
5 5 1 1.16
5 5 1 -0.96
5 5 1 1.6
5 5 1 1.92
5 5 1 3.16
5 5 1 -3.8
5 5 1 -2.2
5 5 1 -0.14
5 5 1 -0.28
5 5 1 2.76
5 5 1 -2.24
5 5 1 -3.12
5 5 1 2.64
5 5 1 0.04
5 5 1 0.84
5 5 1 -2.6
5 5 1 -1.8
5 5 1 -3.64
5 5 1 0.16
5 5 1 2.4
5 5 1 2.4
5 5 1 -1.36
5 5 1 -1.08
5 5 1 0.48
5 5 1 0.6
5 5 1 2.48
5 5 1 -0.6
5 5 1 3.32
5 5 1 -3.2
5 5 1 -0.8
5 5 1 3.24
5 5 1 -2.24
5 5 1 3.8
5 5 1 2.28
5 5 1 2.64
5 5 1 -1.0
5 5 1 0.36
5 5 1 2.36
5 5 1 -0.44
5 5 1 1.36
5 5 1 1.08
5 5 1 -1.12
5 5 1 2.0
5 5 1 -0.2
5 5 1 0.24
5 5 1 0.16
5 5 1 2.84
5 5 1 1.88
5 5 1 -2.6
5 5 1 1.48
5 5 1 2.32
5 5 1 -2.68
5 5 1 -1.48
5 5 1 -3.84
5 5 1 1.52
5 5 1 -2.92
5 5 1 -2.08
5 5 1 2.32
5 5 1 -2.52
5 5 1 1.92
5 5 1 -2.08
5 5 1 -2.44
5 5 1 -3.96
5 5 1 2.4
5 5 1 1.2
5 5 1 -3.12
5 5 1 2.12
5 5 1 0.28
5 5 1 -2.32
5 5 1 3.24
5 5 1 1.1
5 5 1 -3.76
5 5 1 0.64
5 5 1 -3.48
5 5 1 1.08
5 5 1 -2.48
5 5 1 1.28
5 5 1 1.24
5 5 1 -0.48
5 5 1 2.84
5 5 1 2.92
5 5 1 0.44
5 5 1 3.32
5 5 1 -2.24
5 5 1 -2.4
5 5 1 -1.28
5 5 1 3.48
5 5 1 2.72
5 5 1 -2.52
5 5 1 -3.92
5 5 1 -1.68
5 5 1 2.36
5 5 1 0.8
5 5 1 1.88
5 5 1 -3.2
5 5 1 -0.36
5 5 1 -1.2
5 5 1 2.4
5 5 1 -3.0
5 5 1 -0.72
5 5 1 -1.96
5 5 1 -2.32
5 5 1 -2.52
5 5 1 3.48
5 5 1 -3.68
5 5 1 0.16
5 5 1 2.92
5 5 1 -1.32
5 5 1 -3.36
5 5 1 -2.08
5 5 1 -3.64
5 5 1 -1.68
5 5 1 1.64
5 5 1 -2.6
5 5 1 0.64
5 5 1 -2.72
5 5 1 1.6
5 5 1 -2.88
5 5 1 1.68
5 5 1 -2.52
5 5 1 0.8
5 5 1 1.28
5 5 1 -0.2
5 5 1 -3.8
5 5 1 3.92
5 5 1 -1.92
5 5 1 3.52
5 5 1 -3.88
5 5 1 0.38
5 5 1 -1.56
5 5 1 1.96
5 5 1 2.0
5 5 1 0.96
5 5 1 -2.4
5 5 1 1.76
5 5 1 0.96
5 5 1 -1.44
5 5 1 1.0
5 5 1 3.76
5 5 1 -2.2
5 5 1 -3.2
5 5 1 -0.64
5 5 1 2.68
5 5 1 2.4
5 5 1 -1.28
5 5 1 0.36
5 5 1 -2.72
5 5 1 1.96
5 5 1 -1.12
5 5 1 3.12
5 5 1 -3.64
5 5 1 -3.64
5 5 1 2.28
5 5 1 3.92
5 5 1 -1.88
5 5 1 3.8
5 5 1 1.42
5 5 1 -0.88
5 5 1 -2.32
5 5 1 1.96
5 5 1 1.88
5 5 1 0.36
5 5 1 -1.72
5 5 1 1.24
5 5 1 -0.04
5 5 1 -3.04
5 5 1 -1.8
5 5 1 -0.96
5 5 1 0.8
5 5 1 1.68
5 5 1 2.44
5 5 1 -1.76
5 5 1 2.08
5 5 1 -2.52
5 5 1 2.88
5 5 1 -0.76
5 5 1 0.76
5 5 1 0.92
5 5 1 -0.84
5 5 1 -2.92
5 5 1 3.88
5 5 1 0.76
5 5 1 -2.52
5 5 1 0.08
5 5 1 -0.12
5 5 1 -2.96
5 5 1 -0.44
5 5 1 3.52
5 5 1 -2.16
5 5 1 -0.12
5 5 1 3.24
5 5 1 -0.24
5 5 1 -2.72
5 5 1 -1.96
5 5 1 1.08
5 5 1 3.08
5 5 1 -0.4
5 5 1 1.84
5 5 1 -2.08
5 5 1 -1.0
5 5 1 -2.04
5 5 1 2.0
5 5 1 0.08
5 5 1 1.44
5 5 1 1.48
5 5 1 -0.76
5 5 1 -1.56
5 5 1 -0.8
5 5 1 1.56
5 5 1 -0.12
5 5 1 3.24
5 5 1 -3.6
5 5 1 3.12
5 5 1 -0.48
5 5 1 0.6
5 5 1 -2.04
5 5 1 -1.12
5 5 1 -0.28
5 5 1 1.44
5 5 1 2.4
5 5 1 -3.72
5 5 1 -1.68
5 5 1 -1.16
5 5 1 -2.6
5 5 1 2.08
5 5 1 1.36
5 5 1 -3.04
5 5 1 -1.68
5 5 1 3.44
5 5 1 -1.88
5 5 1 0.24
5 5 1 -2.84
5 5 1 -0.32
5 5 1 1.32
5 5 1 -3.8
5 5 1 0.06
5 5 1 1.4
5 5 1 -0.52
5 5 1 -2.2
5 5 1 1.24
5 5 1 -3.16
5 5 1 -0.2
5 5 1 0.16
5 5 1 -1.96
5 5 1 -3.36
5 5 1 0.52
5 5 1 3.72
5 5 1 1.64
5 5 1 -1.32
5 5 1 0.96
5 5 1 0.68
5 5 1 -2.04
5 5 1 3.28
5 5 1 0.72
5 5 1 3.56
5 5 1 1.96
5 5 1 -0.88
5 5 1 -4.0
5 5 1 -0.82
5 5 1 -1.96
5 5 1 -3.44
5 5 1 3.68
5 5 1 -1.84
5 5 1 -1.2
5 5 1 3.32
5 5 1 -0.64
5 5 1 -1.44
5 5 1 -0.24
5 5 1 -3.52
5 5 1 1.04
5 5 1 -0.6
5 5 1 -3.52
5 5 1 -2.12
5 5 1 -3.4
5 5 1 -1.6
5 5 1 0.44
5 5 1 3.28
5 5 1 -2.56
5 5 1 2.48
5 5 1 -2.2
5 5 1 3.4
5 5 1 1.12
5 5 1 3.16
5 5 1 -2.24
5 5 1 0.8
5 5 1 -1.92
5 5 1 -0.36
5 5 1 -2.12
5 5 1 -3.32
5 5 1 2.92
5 5 1 -1.96
5 5 1 2.24
5 5 1 -2.0
5 5 1 2.32
5 5 1 3.52
5 5 1 -3.92
5 5 1 -0.36
5 5 1 3.48
5 5 1 1.28
5 5 1 1.08
5 5 1 -3.44
5 5 1 -3.12
5 5 1 -2.84
5 5 1 -2.84
5 5 1 -1.84
5 5 1 -1.96
5 5 1 -2.32
5 5 1 0.92
5 5 1 0.4
5 5 1 -1.36
5 5 1 -1.08
5 5 1 -2.88
5 5 1 0.68
5 5 1 3.08
5 5 1 -1.56
5 5 1 1.2
5 5 1 -2.52
5 5 1 -3.28
5 5 1 2.32
5 5 1 2.72
5 5 1 0.68
5 5 1 0.76
5 5 1 -1.96
5 5 1 -1.34
5 5 1 -2.92
5 5 1 1.24
5 5 1 1.72
5 5 1 2.12
5 5 1 0.96
5 5 1 -0.32
5 5 1 1.16
5 5 1 2.6
5 5 1 0.56
5 5 1 2.88
5 5 1 -2.88
5 5 1 -2.32
5 5 1 -0.88
5 5 1 0.08
5 5 1 -0.36
5 5 1 -1.72
5 5 1 -1.0
5 5 1 -2.32
5 5 1 -1.44
5 5 1 3.52
5 5 1 2.52
5 5 1 -2.08
5 5 1 -0.44
5 5 1 -1.68
5 5 1 -2.2
5 5 1 -3.52
5 5 1 3.04
5 5 1 -2.52
5 5 1 -2.16
5 5 1 -1.24
5 5 1 -3.6
5 5 1 -2.08
5 5 1 2.28
5 5 1 3.52
5 5 1 3.68
5 5 1 0.6
5 5 1 0.6
5 5 1 -1.96
5 5 1 -2.72
5 5 1 0.64
5 5 1 -0.04
5 5 1 -0.96
5 5 1 0.04
5 5 1 3.96
5 5 1 -0.88
5 5 1 1.32
5 5 1 -2.28
5 5 1 1.6
5 5 1 0.2
5 5 1 -0.92
5 5 1 0.6
5 5 1 3.92
5 5 1 0.56
5 5 1 3.96
5 5 1 3.32
5 5 1 0.72
5 5 1 -1.28
5 5 1 2.72
5 5 1 -0.8
5 5 1 -2.28
5 5 1 -3.32
5 5 1 2.0
5 5 1 3.4
5 5 1 -2.52
5 5 1 1.84
5 5 1 1.12
5 5 1 -1.52
5 5 1 3.56
5 5 1 -0.96
5 5 1 -3.12
5 5 1 -1.8
5 5 1 2.64
5 5 1 -3.88
5 5 1 3.48
5 5 1 0.22
5 5 1 3.44
5 5 1 1.28
5 5 1 3.76
5 5 1 1.32
5 5 1 -1.88
5 5 1 1.6
5 5 1 0.88
5 5 1 -3.36
5 5 1 -3.8
5 5 1 1.56
5 5 1 3.76
5 5 1 0.76
5 5 1 1.84
5 5 1 2.72
5 5 1 1.32
5 5 1 1.36
5 5 1 1.0
5 5 1 0.28
5 5 1 -2.68
5 5 1 -2.56
5 5 1 1.08
5 5 1 1.76
5 5 1 2.16
5 5 1 1.84
5 5 1 -0.56
5 5 1 -3.56
5 5 1 -2.24
5 5 1 -0.44
5 5 1 1.56
5 5 1 0.32
5 5 1 1.16
5 5 1 -3.04
5 5 1 0.14
5 5 1 1.88
5 5 1 3.24
5 5 1 1.04
5 5 1 0.28
5 5 1 3.64
5 5 1 -0.04
5 5 1 -1.68
5 5 1 -2.76
5 5 1 -1.44
5 5 1 -1.24
5 5 1 -3.8
5 5 1 2.12
5 5 1 -1.96
5 5 1 0.44
5 5 1 -0.2
5 5 1 -0.24
5 5 1 -1.32
5 5 1 1.96
5 5 1 1.52
5 5 1 -1.36
5 5 1 -2.24
5 5 1 -3.48
5 5 1 3.84
5 5 1 -3.52
5 5 1 -0.84
5 5 1 -0.68
5 5 1 2.44
5 5 1 -1.7
5 5 1 -0.64
5 5 1 -2.28
5 5 1 -2.0
5 5 1 -2.24
5 5 1 -1.36
5 5 1 1.8
5 5 1 -3.24
5 5 1 1.32
5 5 1 -3.88
5 5 1 -0.24
5 5 1 -2.24
5 5 1 2.24
5 5 1 -0.7
5 5 1 -1.48
5 5 1 -2.72
5 5 1 2.36
5 5 1 -2.52
5 5 1 2.24
5 5 1 0.64
5 5 1 2.36
5 5 1 0.4
5 5 1 -2.52
5 5 1 -0.08
5 5 1 0.24
5 5 1 1.16
5 5 1 -3.16
5 5 1 -3.12
5 5 1 1.84
5 5 1 -3.32
5 5 1 1.52
5 5 1 2.8
5 5 1 3.48
5 5 1 -1.08
5 5 1 -3.88
5 5 1 0.86
5 5 1 -1.48
5 5 1 -0.8
5 5 1 -3.84
5 5 1 -2.52
5 5 1 -3.28
5 5 1 -4.0
5 5 1 0.2
5 5 1 1.12
5 5 1 0.36
5 5 1 -0.24
5 5 1 0.84
5 5 1 -3.8
5 5 1 3.56
5 5 1 -2.48
5 5 1 3.72
5 5 1 1.88
5 5 1 0.36
5 5 1 -1.8
5 5 1 0.04
5 5 1 -0.36
5 5 1 -2.6
5 5 1 1.68
5 5 1 3.72
5 5 1 0.2
5 5 1 -2.2
5 5 1 -2.4
5 5 1 0.58
5 5 1 2.64
5 5 1 -0.48
5 5 1 2.08
5 5 1 -3.52
5 5 1 -1.36
5 5 1 -0.6
5 5 1 -1.42
5 5 1 2.24
5 5 1 0.04
5 5 1 -2.08
5 5 1 2.72
5 5 1 3.08
5 5 1 1.54
5 5 1 3.68
5 5 1 -3.76
5 5 1 -3.64
5 5 1 1.84
5 5 1 0.24
5 5 1 2.6
5 5 1 -3.0
5 5 1 -3.84
5 5 1 1.48
5 5 1 1.92
5 5 1 -0.72
5 5 1 -1.76
5 5 1 -0.12
5 5 1 1.02
200 # number of linear terms in all constraints
1 1 0.99
1 2 -0.71
1 3 -0.61
1 4 0.11
1 5 0.31
1 6 0.91
1 7 -0.07
1 8 -0.16
1 9 0.63
1 10 0.52
1 11 -0.75
1 12 -0.53
1 13 -0.04
1 14 0.27
1 15 -0.4
1 16 -0.26
1 17 -0.84
1 18 0.31
1 19 -0.1
1 20 -0.08
1 21 0.97
1 22 -0.01
1 23 -0.07
1 24 0.82
1 25 0.39
1 26 -0.47
1 27 -0.85
1 28 0.22
1 29 0.22
1 30 0.72
1 31 -0.22
1 32 0.43
1 33 0.35
1 34 -0.87
1 35 0.77
1 36 0.48
1 37 -0.56
1 38 -0.27
1 39 0.41
1 40 -0.58
2 1 -0.83
2 2 -0.79
2 3 -0.79
2 4 0.42
2 5 -0.53
2 6 0.54
2 7 -0.36
2 8 -0.6
2 9 0.74
2 10 -0.89
2 11 -0.93
2 12 -0.02
2 13 0.45
2 14 0.45
2 15 0.35
2 16 0.2
2 17 0.29
2 18 -0.44
2 19 0.74
2 20 -0.5
2 21 0.83
2 22 -0.54
2 23 -0.52
2 24 -0.65
2 25 -0.61
2 26 -0.89
2 27 -0.48
2 28 0.34
2 29 0.93
2 30 -0.64
2 31 -0.57
2 32 -0.8
2 33 0.67
2 34 0.96
2 35 0.64
2 36 -0.17
2 37 -0.62
2 38 -1.0
2 39 -0.94
2 40 -0.77
3 1 0.52
3 2 0.29
3 3 -0.46
3 4 -0.21
3 5 0.17
3 6 0.68
3 7 0.95
3 8 0.11
3 9 0.56
3 10 0.41
3 11 0.48
3 12 0.53
3 13 0.78
3 14 -0.2
3 15 0.13
3 16 0.04
3 17 0.55
3 18 0.35
3 19 0.94
3 20 0.97
3 21 -0.34
3 22 0.78
3 23 -0.26
3 24 0.3
3 25 0.43
3 26 -0.61
3 27 0.46
3 28 -0.76
3 29 0.19
3 30 -0.39
3 31 -0.73
3 32 -0.51
3 33 -0.49
3 34 -0.36
3 35 0.46
3 36 0.12
3 37 0.5
3 38 -0.17
3 39 0.91
3 40 -0.4
4 1 0.41
4 2 0.58
4 3 -0.19
4 4 0.68
4 5 0.32
4 6 0.47
4 7 0.36
4 8 -0.42
4 9 0.21
4 10 -0.91
4 11 0.8
4 12 0.59
4 13 -0.13
4 14 -0.52
4 15 -0.47
4 16 0.85
4 17 -0.67
4 18 0.22
4 19 0.96
4 20 0.58
4 21 0.35
4 22 -0.22
4 23 -0.5
4 24 -0.94
4 25 -0.95
4 26 -0.21
4 27 0.47
4 28 -0.97
4 29 -0.35
4 30 -0.32
4 31 0.94
4 32 -0.48
4 33 0.47
4 34 0.43
4 35 0.99
4 36 -0.58
4 37 0.81
4 38 -0.1
4 39 -0.89
4 40 0.34
5 1 0.7
5 2 -0.21
5 3 -0.02
5 4 -0.12
5 5 0.24
5 6 0.55
5 7 0.64
5 8 -0.53
5 9 0.64
5 10 0.77
5 11 -0.79
5 12 0.72
5 13 0.83
5 14 -0.33
5 15 -0.29
5 16 0.07
5 17 0.14
5 18 -0.99
5 19 -0.75
5 20 -0.37
5 21 0.74
5 22 0.49
5 23 -0.83
5 24 0.94
5 25 0.07
5 26 0.85
5 27 0.3
5 28 -0.75
5 29 -0.22
5 30 0.14
5 31 0.76
5 32 0.94
5 33 0.56
5 34 0.14
5 35 0.23
5 36 -0.67
5 37 -0.87
5 38 0.3
5 39 -0.73
5 40 0.81
1.79769313486232E+308 # value for infinity
-1.79769313486232E+308 # default left-hand-side value
4 # number of non-default left-hand-sides
1 -0.17
2 0.51
3 -0.41
4 -0.15
67.98 # default right-hand-side value
4 # number of non-default right-hand-sides
1 -0.17
2 0.51
3 -0.41
4 -0.15
0.0 # default variable lower bound value
0 # number of non-default variable lower bounds
1.0 # default variable upper bound value
0 # number of non-default variable upper bounds
0.0 # default variable primal value in starting point
0 # number of non-default variable primal values in starting point
0.0 # default constraint dual value in starting point
0 # number of non-default constraint dual values in starting point
0.0 # default variable bound dual value in starting point
0 # number of non-default variable bound dual values in starting point
0 # number of non-default variable names
0 # number of non-default constraint names
